\ Generated by MPModelProtoExporter
\   Name             : SCIP
\   Format           : Free
\   Constraints      : 30
\   Variables        : 210
\     Binary         : 210
\     Integer        : 0
\     Continuous     : 0
Minimize
 Obj: +77 x[0,0] +13 x[1,0] +87 x[2,0] +74 x[3,0] +54 x[4,0] +68 x[5,0] +48 x[6,0] +86 x[7,0] +45 x[8,0] +84 x[9,0] +40 x[10,0] +87 x[11,0] +49 x[12,0] +8 x[13,0] +79 x[14,0] +41 x[15,0] +70 x[16,0] +2 x[17,0] +27 x[18,0] +50 x[19,0] +29 x[0,1] +55 x[1,1] +18 x[2,1] +31 x[3,1] +32 x[4,1] +84 x[5,1] +87 x[6,1] +94 x[7,1] +60 x[8,1] +63 x[9,1] +9 x[10,1] +65 x[11,1] +69 x[12,1] +8 x[13,1] +1 x[14,1] +38 x[15,1] +41 x[16,1] +56 x[17,1] +92 x[18,1] +32 x[19,1] +2 x[0,2] +49 x[1,2] +48 x[2,2] +73 x[3,2] +15 x[4,2] +82 x[5,2] +87 x[6,2] +98 x[7,2] +32 x[8,2] +18 x[9,2] +4 x[10,2] +30 x[11,2] +26 x[12,2] +35 x[13,2] +99 x[14,2] +82 x[15,2] +56 x[16,2] +28 x[17,2] +27 x[18,2] +92 x[19,2] +40 x[0,3] +10 x[1,3] +66 x[2,3] +37 x[3,3] +89 x[4,3] +76 x[5,3] +81 x[6,3] +41 x[7,3] +7 x[8,3] +34 x[9,3] +61 x[10,3] +26 x[11,3] +95 x[12,3] +8 x[13,3] +14 x[14,3] +93 x[15,3] +64 x[16,3] +57 x[17,3] +48 x[18,3] +76 x[19,3] +72 x[0,4] +50 x[1,4] +78 x[2,4] +27 x[3,4] +64 x[4,4] +99 x[5,4] +26 x[6,4] +13 x[7,4] +79 x[8,4] +35 x[9,4] +45 x[10,4] +10 x[11,4] +55 x[12,4] +79 x[13,4] +33 x[14,4] +30 x[15,4] +27 x[16,4] +7 x[17,4] +82 x[18,4] +93 x[19,4] +59 x[0,5] +74 x[1,5] +70 x[2,5] +32 x[3,5] +42 x[4,5] +87 x[5,5] +11 x[6,5] +21 x[7,5] +54 x[8,5] +10 x[9,5] +47 x[10,5] +37 x[11,5] +73 x[12,5] +94 x[13,5] +48 x[14,5] +65 x[15,5] +81 x[16,5] +56 x[17,5] +95 x[18,5] +19 x[19,5] +59 x[0,6] +29 x[1,6] +25 x[2,6] +47 x[4,6] +64 x[5,6] +3 x[6,6] +76 x[7,6] +21 x[8,6] +11 x[9,6] +99 x[10,6] +96 x[11,6] +28 x[12,6] +91 x[13,6] +36 x[14,6] +13 x[15,6] +30 x[16,6] +3 x[17,6] +10 x[18,6] +43 x[19,6] +92 x[0,7] +77 x[1,7] +3 x[2,7] +1 x[3,7] +6 x[4,7] +31 x[5,7] +38 x[6,7] +19 x[7,7] +10 x[8,7] +83 x[9,7] +24 x[10,7] +45 x[11,7] +6 x[12,7] +46 x[13,7] +97 x[14,7] +6 x[15,7] +23 x[16,7] +73 x[17,7] +29 x[18,7] +21 x[19,7] +52 x[0,8] +50 x[1,8] +98 x[2,8] +50 x[3,8] +7 x[4,8] +9 x[5,8] +68 x[6,8] +96 x[7,8] +71 x[8,8] +88 x[9,8] +6 x[10,8] +94 x[11,8] +81 x[12,8] +86 x[13,8] +4 x[14,8] +69 x[15,8] +55 x[16,8] +12 x[17,8] +51 x[18,8] +18 x[19,8] +6 x[0,9] +21 x[1,9] +94 x[2,9] +15 x[3,9] +36 x[4,9] +36 x[5,9] +97 x[6,9] +49 x[7,9] +20 x[8,9] +44 x[9,9] +74 x[10,9] +18 x[11,9] +24 x[12,9] +96 x[13,9] +53 x[14,9] +52 x[15,9] +24 x[16,9] +80 x[17,9] +92 x[18,9] +24 x[19,9] +354 y[0] +446 y[1] +809 y[2] +1578 y[3] +737 y[4] +1197 y[5] +392 y[6] +1289 y[7] +1097 y[8] +749 y[9] 
Subject to
 auto_c_000000000: +1 x[0,0] +1 x[0,1] +1 x[0,2] +1 x[0,3] +1 x[0,4] +1 x[0,5] +1 x[0,6] +1 x[0,7] +1 x[0,8] +1 x[0,9]  = 1
 auto_c_000000001: +1 x[1,0] +1 x[1,1] +1 x[1,2] +1 x[1,3] +1 x[1,4] +1 x[1,5] +1 x[1,6] +1 x[1,7] +1 x[1,8] +1 x[1,9]  = 1
 auto_c_000000002: +1 x[2,0] +1 x[2,1] +1 x[2,2] +1 x[2,3] +1 x[2,4] +1 x[2,5] +1 x[2,6] +1 x[2,7] +1 x[2,8] +1 x[2,9]  = 1
 auto_c_000000003: +1 x[3,0] +1 x[3,1] +1 x[3,2] +1 x[3,3] +1 x[3,4] +1 x[3,5] +1 x[3,6] +1 x[3,7] +1 x[3,8] +1 x[3,9]  = 1
 auto_c_000000004: +1 x[4,0] +1 x[4,1] +1 x[4,2] +1 x[4,3] +1 x[4,4] +1 x[4,5] +1 x[4,6] +1 x[4,7] +1 x[4,8] +1 x[4,9]  = 1
 auto_c_000000005: +1 x[5,0] +1 x[5,1] +1 x[5,2] +1 x[5,3] +1 x[5,4] +1 x[5,5] +1 x[5,6] +1 x[5,7] +1 x[5,8] +1 x[5,9]  = 1
 auto_c_000000006: +1 x[6,0] +1 x[6,1] +1 x[6,2] +1 x[6,3] +1 x[6,4] +1 x[6,5] +1 x[6,6] +1 x[6,7] +1 x[6,8] +1 x[6,9]  = 1
 auto_c_000000007: +1 x[7,0] +1 x[7,1] +1 x[7,2] +1 x[7,3] +1 x[7,4] +1 x[7,5] +1 x[7,6] +1 x[7,7] +1 x[7,8] +1 x[7,9]  = 1
 auto_c_000000008: +1 x[8,0] +1 x[8,1] +1 x[8,2] +1 x[8,3] +1 x[8,4] +1 x[8,5] +1 x[8,6] +1 x[8,7] +1 x[8,8] +1 x[8,9]  = 1
 auto_c_000000009: +1 x[9,0] +1 x[9,1] +1 x[9,2] +1 x[9,3] +1 x[9,4] +1 x[9,5] +1 x[9,6] +1 x[9,7] +1 x[9,8] +1 x[9,9]  = 1
 auto_c_000000010: +1 x[10,0] +1 x[10,1] +1 x[10,2] +1 x[10,3] +1 x[10,4] +1 x[10,5] +1 x[10,6] +1 x[10,7] +1 x[10,8] +1 x[10,9]  = 1
 auto_c_000000011: +1 x[11,0] +1 x[11,1] +1 x[11,2] +1 x[11,3] +1 x[11,4] +1 x[11,5] +1 x[11,6] +1 x[11,7] +1 x[11,8] +1 x[11,9]  = 1
 auto_c_000000012: +1 x[12,0] +1 x[12,1] +1 x[12,2] +1 x[12,3] +1 x[12,4] +1 x[12,5] +1 x[12,6] +1 x[12,7] +1 x[12,8] +1 x[12,9]  = 1
 auto_c_000000013: +1 x[13,0] +1 x[13,1] +1 x[13,2] +1 x[13,3] +1 x[13,4] +1 x[13,5] +1 x[13,6] +1 x[13,7] +1 x[13,8] +1 x[13,9]  = 1
 auto_c_000000014: +1 x[14,0] +1 x[14,1] +1 x[14,2] +1 x[14,3] +1 x[14,4] +1 x[14,5] +1 x[14,6] +1 x[14,7] +1 x[14,8] +1 x[14,9]  = 1
 auto_c_000000015: +1 x[15,0] +1 x[15,1] +1 x[15,2] +1 x[15,3] +1 x[15,4] +1 x[15,5] +1 x[15,6] +1 x[15,7] +1 x[15,8] +1 x[15,9]  = 1
 auto_c_000000016: +1 x[16,0] +1 x[16,1] +1 x[16,2] +1 x[16,3] +1 x[16,4] +1 x[16,5] +1 x[16,6] +1 x[16,7] +1 x[16,8] +1 x[16,9]  = 1
 auto_c_000000017: +1 x[17,0] +1 x[17,1] +1 x[17,2] +1 x[17,3] +1 x[17,4] +1 x[17,5] +1 x[17,6] +1 x[17,7] +1 x[17,8] +1 x[17,9]  = 1
 auto_c_000000018: +1 x[18,0] +1 x[18,1] +1 x[18,2] +1 x[18,3] +1 x[18,4] +1 x[18,5] +1 x[18,6] +1 x[18,7] +1 x[18,8] +1 x[18,9]  = 1
 auto_c_000000019: +1 x[19,0] +1 x[19,1] +1 x[19,2] +1 x[19,3] +1 x[19,4] +1 x[19,5] +1 x[19,6] +1 x[19,7] +1 x[19,8] +1 x[19,9]  = 1
 auto_c_000000020: +11 x[0,0] +29 x[1,0] +25 x[2,0] +23 x[3,0] +10 x[4,0] +23 x[5,0] +11 x[6,0] +22 x[7,0] +28 x[8,0] +27 x[9,0] +21 x[10,0] +25 x[11,0] +14 x[12,0] +19 x[13,0] +19 x[14,0] +15 x[15,0] +20 x[16,0] +19 x[17,0] +21 x[18,0] +13 x[19,0] -32 y[0]  <= 0
 auto_c_000000021: +11 x[0,1] +29 x[1,1] +25 x[2,1] +23 x[3,1] +10 x[4,1] +23 x[5,1] +11 x[6,1] +22 x[7,1] +28 x[8,1] +27 x[9,1] +21 x[10,1] +25 x[11,1] +14 x[12,1] +19 x[13,1] +19 x[14,1] +15 x[15,1] +20 x[16,1] +19 x[17,1] +21 x[18,1] +13 x[19,1] -23 y[1]  <= 0
 auto_c_000000022: +11 x[0,2] +29 x[1,2] +25 x[2,2] +23 x[3,2] +10 x[4,2] +23 x[5,2] +11 x[6,2] +22 x[7,2] +28 x[8,2] +27 x[9,2] +21 x[10,2] +25 x[11,2] +14 x[12,2] +19 x[13,2] +19 x[14,2] +15 x[15,2] +20 x[16,2] +19 x[17,2] +21 x[18,2] +13 x[19,2] -74 y[2]  <= 0
 auto_c_000000023: +11 x[0,3] +29 x[1,3] +25 x[2,3] +23 x[3,3] +10 x[4,3] +23 x[5,3] +11 x[6,3] +22 x[7,3] +28 x[8,3] +27 x[9,3] +21 x[10,3] +25 x[11,3] +14 x[12,3] +19 x[13,3] +19 x[14,3] +15 x[15,3] +20 x[16,3] +19 x[17,3] +21 x[18,3] +13 x[19,3] -80 y[3]  <= 0
 auto_c_000000024: +11 x[0,4] +29 x[1,4] +25 x[2,4] +23 x[3,4] +10 x[4,4] +23 x[5,4] +11 x[6,4] +22 x[7,4] +28 x[8,4] +27 x[9,4] +21 x[10,4] +25 x[11,4] +14 x[12,4] +19 x[13,4] +19 x[14,4] +15 x[15,4] +20 x[16,4] +19 x[17,4] +21 x[18,4] +13 x[19,4] -61 y[4]  <= 0
 auto_c_000000025: +11 x[0,5] +29 x[1,5] +25 x[2,5] +23 x[3,5] +10 x[4,5] +23 x[5,5] +11 x[6,5] +22 x[7,5] +28 x[8,5] +27 x[9,5] +21 x[10,5] +25 x[11,5] +14 x[12,5] +19 x[13,5] +19 x[14,5] +15 x[15,5] +20 x[16,5] +19 x[17,5] +21 x[18,5] +13 x[19,5] -67 y[5]  <= 0
 auto_c_000000026: +11 x[0,6] +29 x[1,6] +25 x[2,6] +23 x[3,6] +10 x[4,6] +23 x[5,6] +11 x[6,6] +22 x[7,6] +28 x[8,6] +27 x[9,6] +21 x[10,6] +25 x[11,6] +14 x[12,6] +19 x[13,6] +19 x[14,6] +15 x[15,6] +20 x[16,6] +19 x[17,6] +21 x[18,6] +13 x[19,6] -27 y[6]  <= 0
 auto_c_000000027: +11 x[0,7] +29 x[1,7] +25 x[2,7] +23 x[3,7] +10 x[4,7] +23 x[5,7] +11 x[6,7] +22 x[7,7] +28 x[8,7] +27 x[9,7] +21 x[10,7] +25 x[11,7] +14 x[12,7] +19 x[13,7] +19 x[14,7] +15 x[15,7] +20 x[16,7] +19 x[17,7] +21 x[18,7] +13 x[19,7] -66 y[7]  <= 0
 auto_c_000000028: +11 x[0,8] +29 x[1,8] +25 x[2,8] +23 x[3,8] +10 x[4,8] +23 x[5,8] +11 x[6,8] +22 x[7,8] +28 x[8,8] +27 x[9,8] +21 x[10,8] +25 x[11,8] +14 x[12,8] +19 x[13,8] +19 x[14,8] +15 x[15,8] +20 x[16,8] +19 x[17,8] +21 x[18,8] +13 x[19,8] -68 y[8]  <= 0
 auto_c_000000029: +11 x[0,9] +29 x[1,9] +25 x[2,9] +23 x[3,9] +10 x[4,9] +23 x[5,9] +11 x[6,9] +22 x[7,9] +28 x[8,9] +27 x[9,9] +21 x[10,9] +25 x[11,9] +14 x[12,9] +19 x[13,9] +19 x[14,9] +15 x[15,9] +20 x[16,9] +19 x[17,9] +21 x[18,9] +13 x[19,9] -64 y[9]  <= 0
Bounds
 0 <= x[0,0] <= 1
 0 <= x[1,0] <= 1
 0 <= x[2,0] <= 1
 0 <= x[3,0] <= 1
 0 <= x[4,0] <= 1
 0 <= x[5,0] <= 1
 0 <= x[6,0] <= 1
 0 <= x[7,0] <= 1
 0 <= x[8,0] <= 1
 0 <= x[9,0] <= 1
 0 <= x[10,0] <= 1
 0 <= x[11,0] <= 1
 0 <= x[12,0] <= 1
 0 <= x[13,0] <= 1
 0 <= x[14,0] <= 1
 0 <= x[15,0] <= 1
 0 <= x[16,0] <= 1
 0 <= x[17,0] <= 1
 0 <= x[18,0] <= 1
 0 <= x[19,0] <= 1
 0 <= x[0,1] <= 1
 0 <= x[1,1] <= 1
 0 <= x[2,1] <= 1
 0 <= x[3,1] <= 1
 0 <= x[4,1] <= 1
 0 <= x[5,1] <= 1
 0 <= x[6,1] <= 1
 0 <= x[7,1] <= 1
 0 <= x[8,1] <= 1
 0 <= x[9,1] <= 1
 0 <= x[10,1] <= 1
 0 <= x[11,1] <= 1
 0 <= x[12,1] <= 1
 0 <= x[13,1] <= 1
 0 <= x[14,1] <= 1
 0 <= x[15,1] <= 1
 0 <= x[16,1] <= 1
 0 <= x[17,1] <= 1
 0 <= x[18,1] <= 1
 0 <= x[19,1] <= 1
 0 <= x[0,2] <= 1
 0 <= x[1,2] <= 1
 0 <= x[2,2] <= 1
 0 <= x[3,2] <= 1
 0 <= x[4,2] <= 1
 0 <= x[5,2] <= 1
 0 <= x[6,2] <= 1
 0 <= x[7,2] <= 1
 0 <= x[8,2] <= 1
 0 <= x[9,2] <= 1
 0 <= x[10,2] <= 1
 0 <= x[11,2] <= 1
 0 <= x[12,2] <= 1
 0 <= x[13,2] <= 1
 0 <= x[14,2] <= 1
 0 <= x[15,2] <= 1
 0 <= x[16,2] <= 1
 0 <= x[17,2] <= 1
 0 <= x[18,2] <= 1
 0 <= x[19,2] <= 1
 0 <= x[0,3] <= 1
 0 <= x[1,3] <= 1
 0 <= x[2,3] <= 1
 0 <= x[3,3] <= 1
 0 <= x[4,3] <= 1
 0 <= x[5,3] <= 1
 0 <= x[6,3] <= 1
 0 <= x[7,3] <= 1
 0 <= x[8,3] <= 1
 0 <= x[9,3] <= 1
 0 <= x[10,3] <= 1
 0 <= x[11,3] <= 1
 0 <= x[12,3] <= 1
 0 <= x[13,3] <= 1
 0 <= x[14,3] <= 1
 0 <= x[15,3] <= 1
 0 <= x[16,3] <= 1
 0 <= x[17,3] <= 1
 0 <= x[18,3] <= 1
 0 <= x[19,3] <= 1
 0 <= x[0,4] <= 1
 0 <= x[1,4] <= 1
 0 <= x[2,4] <= 1
 0 <= x[3,4] <= 1
 0 <= x[4,4] <= 1
 0 <= x[5,4] <= 1
 0 <= x[6,4] <= 1
 0 <= x[7,4] <= 1
 0 <= x[8,4] <= 1
 0 <= x[9,4] <= 1
 0 <= x[10,4] <= 1
 0 <= x[11,4] <= 1
 0 <= x[12,4] <= 1
 0 <= x[13,4] <= 1
 0 <= x[14,4] <= 1
 0 <= x[15,4] <= 1
 0 <= x[16,4] <= 1
 0 <= x[17,4] <= 1
 0 <= x[18,4] <= 1
 0 <= x[19,4] <= 1
 0 <= x[0,5] <= 1
 0 <= x[1,5] <= 1
 0 <= x[2,5] <= 1
 0 <= x[3,5] <= 1
 0 <= x[4,5] <= 1
 0 <= x[5,5] <= 1
 0 <= x[6,5] <= 1
 0 <= x[7,5] <= 1
 0 <= x[8,5] <= 1
 0 <= x[9,5] <= 1
 0 <= x[10,5] <= 1
 0 <= x[11,5] <= 1
 0 <= x[12,5] <= 1
 0 <= x[13,5] <= 1
 0 <= x[14,5] <= 1
 0 <= x[15,5] <= 1
 0 <= x[16,5] <= 1
 0 <= x[17,5] <= 1
 0 <= x[18,5] <= 1
 0 <= x[19,5] <= 1
 0 <= x[0,6] <= 1
 0 <= x[1,6] <= 1
 0 <= x[2,6] <= 1
 0 <= x[3,6] <= 1
 0 <= x[4,6] <= 1
 0 <= x[5,6] <= 1
 0 <= x[6,6] <= 1
 0 <= x[7,6] <= 1
 0 <= x[8,6] <= 1
 0 <= x[9,6] <= 1
 0 <= x[10,6] <= 1
 0 <= x[11,6] <= 1
 0 <= x[12,6] <= 1
 0 <= x[13,6] <= 1
 0 <= x[14,6] <= 1
 0 <= x[15,6] <= 1
 0 <= x[16,6] <= 1
 0 <= x[17,6] <= 1
 0 <= x[18,6] <= 1
 0 <= x[19,6] <= 1
 0 <= x[0,7] <= 1
 0 <= x[1,7] <= 1
 0 <= x[2,7] <= 1
 0 <= x[3,7] <= 1
 0 <= x[4,7] <= 1
 0 <= x[5,7] <= 1
 0 <= x[6,7] <= 1
 0 <= x[7,7] <= 1
 0 <= x[8,7] <= 1
 0 <= x[9,7] <= 1
 0 <= x[10,7] <= 1
 0 <= x[11,7] <= 1
 0 <= x[12,7] <= 1
 0 <= x[13,7] <= 1
 0 <= x[14,7] <= 1
 0 <= x[15,7] <= 1
 0 <= x[16,7] <= 1
 0 <= x[17,7] <= 1
 0 <= x[18,7] <= 1
 0 <= x[19,7] <= 1
 0 <= x[0,8] <= 1
 0 <= x[1,8] <= 1
 0 <= x[2,8] <= 1
 0 <= x[3,8] <= 1
 0 <= x[4,8] <= 1
 0 <= x[5,8] <= 1
 0 <= x[6,8] <= 1
 0 <= x[7,8] <= 1
 0 <= x[8,8] <= 1
 0 <= x[9,8] <= 1
 0 <= x[10,8] <= 1
 0 <= x[11,8] <= 1
 0 <= x[12,8] <= 1
 0 <= x[13,8] <= 1
 0 <= x[14,8] <= 1
 0 <= x[15,8] <= 1
 0 <= x[16,8] <= 1
 0 <= x[17,8] <= 1
 0 <= x[18,8] <= 1
 0 <= x[19,8] <= 1
 0 <= x[0,9] <= 1
 0 <= x[1,9] <= 1
 0 <= x[2,9] <= 1
 0 <= x[3,9] <= 1
 0 <= x[4,9] <= 1
 0 <= x[5,9] <= 1
 0 <= x[6,9] <= 1
 0 <= x[7,9] <= 1
 0 <= x[8,9] <= 1
 0 <= x[9,9] <= 1
 0 <= x[10,9] <= 1
 0 <= x[11,9] <= 1
 0 <= x[12,9] <= 1
 0 <= x[13,9] <= 1
 0 <= x[14,9] <= 1
 0 <= x[15,9] <= 1
 0 <= x[16,9] <= 1
 0 <= x[17,9] <= 1
 0 <= x[18,9] <= 1
 0 <= x[19,9] <= 1
 0 <= y[0] <= 1
 0 <= y[1] <= 1
 0 <= y[2] <= 1
 0 <= y[3] <= 1
 0 <= y[4] <= 1
 0 <= y[5] <= 1
 0 <= y[6] <= 1
 0 <= y[7] <= 1
 0 <= y[8] <= 1
 0 <= y[9] <= 1
Binaries
 x[0,0]
 x[1,0]
 x[2,0]
 x[3,0]
 x[4,0]
 x[5,0]
 x[6,0]
 x[7,0]
 x[8,0]
 x[9,0]
 x[10,0]
 x[11,0]
 x[12,0]
 x[13,0]
 x[14,0]
 x[15,0]
 x[16,0]
 x[17,0]
 x[18,0]
 x[19,0]
 x[0,1]
 x[1,1]
 x[2,1]
 x[3,1]
 x[4,1]
 x[5,1]
 x[6,1]
 x[7,1]
 x[8,1]
 x[9,1]
 x[10,1]
 x[11,1]
 x[12,1]
 x[13,1]
 x[14,1]
 x[15,1]
 x[16,1]
 x[17,1]
 x[18,1]
 x[19,1]
 x[0,2]
 x[1,2]
 x[2,2]
 x[3,2]
 x[4,2]
 x[5,2]
 x[6,2]
 x[7,2]
 x[8,2]
 x[9,2]
 x[10,2]
 x[11,2]
 x[12,2]
 x[13,2]
 x[14,2]
 x[15,2]
 x[16,2]
 x[17,2]
 x[18,2]
 x[19,2]
 x[0,3]
 x[1,3]
 x[2,3]
 x[3,3]
 x[4,3]
 x[5,3]
 x[6,3]
 x[7,3]
 x[8,3]
 x[9,3]
 x[10,3]
 x[11,3]
 x[12,3]
 x[13,3]
 x[14,3]
 x[15,3]
 x[16,3]
 x[17,3]
 x[18,3]
 x[19,3]
 x[0,4]
 x[1,4]
 x[2,4]
 x[3,4]
 x[4,4]
 x[5,4]
 x[6,4]
 x[7,4]
 x[8,4]
 x[9,4]
 x[10,4]
 x[11,4]
 x[12,4]
 x[13,4]
 x[14,4]
 x[15,4]
 x[16,4]
 x[17,4]
 x[18,4]
 x[19,4]
 x[0,5]
 x[1,5]
 x[2,5]
 x[3,5]
 x[4,5]
 x[5,5]
 x[6,5]
 x[7,5]
 x[8,5]
 x[9,5]
 x[10,5]
 x[11,5]
 x[12,5]
 x[13,5]
 x[14,5]
 x[15,5]
 x[16,5]
 x[17,5]
 x[18,5]
 x[19,5]
 x[0,6]
 x[1,6]
 x[2,6]
 x[3,6]
 x[4,6]
 x[5,6]
 x[6,6]
 x[7,6]
 x[8,6]
 x[9,6]
 x[10,6]
 x[11,6]
 x[12,6]
 x[13,6]
 x[14,6]
 x[15,6]
 x[16,6]
 x[17,6]
 x[18,6]
 x[19,6]
 x[0,7]
 x[1,7]
 x[2,7]
 x[3,7]
 x[4,7]
 x[5,7]
 x[6,7]
 x[7,7]
 x[8,7]
 x[9,7]
 x[10,7]
 x[11,7]
 x[12,7]
 x[13,7]
 x[14,7]
 x[15,7]
 x[16,7]
 x[17,7]
 x[18,7]
 x[19,7]
 x[0,8]
 x[1,8]
 x[2,8]
 x[3,8]
 x[4,8]
 x[5,8]
 x[6,8]
 x[7,8]
 x[8,8]
 x[9,8]
 x[10,8]
 x[11,8]
 x[12,8]
 x[13,8]
 x[14,8]
 x[15,8]
 x[16,8]
 x[17,8]
 x[18,8]
 x[19,8]
 x[0,9]
 x[1,9]
 x[2,9]
 x[3,9]
 x[4,9]
 x[5,9]
 x[6,9]
 x[7,9]
 x[8,9]
 x[9,9]
 x[10,9]
 x[11,9]
 x[12,9]
 x[13,9]
 x[14,9]
 x[15,9]
 x[16,9]
 x[17,9]
 x[18,9]
 x[19,9]
 y[0]
 y[1]
 y[2]
 y[3]
 y[4]
 y[5]
 y[6]
 y[7]
 y[8]
 y[9]
End
